(set-option :produce-unsat-cores true )
(set-logic AUFDTLIA )
(declare-sort N$ 0 )
(declare-sort T$ 0 )
(declare-sort Dtree$ 0 )
(declare-sort N_set$ 0 )
(declare-sort T_set$ 0 )
(declare-sort N_N_fun$ 0 )
(declare-sort T_T_fun$ 0 )
(declare-sort T_set_set$ 0 )
(declare-sort N_bool_fun$ 0 )
(declare-sort T_bool_fun$ 0 )
(declare-sort Dtree_N_fun$ 0 )
(declare-sort N_dtree_fun$ 0 )
(declare-sort T_N_sum_set$ 0 )
(declare-sort N_T_N_sum_fun$ 0 )
(declare-sort T_N_sum_N_fun$ 0 )
(declare-sort Dtree_bool_fun$ 0 )
(declare-sort Dtree_dtree_fun$ 0 )
(declare-sort N_set_N_set_fun$ 0 )
(declare-sort T_dtree_sum_set$ 0 )
(declare-sort T_set_T_set_fun$ 0 )
(declare-sort T_N_sum_bool_fun$ 0 )
(declare-sort N_T_dtree_sum_fun$ 0 )
(declare-sort T_dtree_sum_N_fun$ 0 )
(declare-sort T_N_sum_T_N_sum_fun$ 0 )
(declare-sort T_dtree_sum_bool_fun$ 0 )
(declare-sort N_T_N_sum_set_prod_set$ 0 )
(declare-sort N_set_set_N_set_set_fun$ 0 )
(declare-sort T_N_sum_T_dtree_sum_fun$ 0 )
(declare-sort T_dtree_sum_T_N_sum_fun$ 0 )
(declare-sort T_set_set_T_set_set_fun$ 0 )
(declare-sort Dtree_dtree_bool_fun_fun$ 0 )
(declare-sort N_N_T_N_sum_set_prod_fun$ 0 )
(declare-sort N_T_N_sum_set_prod_N_fun$ 0 )
(declare-sort N_T_N_sum_set_prod_bool_fun$ 0 )
(declare-sort T_N_sum_set_T_N_sum_set_fun$ 0 )
(declare-sort T_dtree_sum_T_dtree_sum_fun$ 0 )
(declare-sort T_set_set_set_T_set_set_set_fun$ 0 )
(declare-sort N_T_N_sum_set_prod_T_dtree_sum_fun$ 0 )
(declare-sort N_set_dtree_dtree_bool_fun_fun_fun$ 0 )
(declare-sort T_dtree_sum_N_T_N_sum_set_prod_fun$ 0 )
(declare-sort Dtree_N_fun_T_dtree_sum_T_N_sum_fun_fun$ 0 )
(declare-sort N_dtree_fun_T_N_sum_T_dtree_sum_fun_fun$ 0 )
(declare-sort N_T_N_sum_set_prod_N_T_N_sum_set_prod_fun$ 0 )
(declare-sort Dtree_dtree_fun_T_dtree_sum_T_dtree_sum_fun_fun$ 0 )
(declare-sort N_T_N_sum_set_prod$ 0)
(declare-sort T_N_sum$ 0)
(declare-sort T_dtree_sum$ 0)
(declare-fun fst$ (N_T_N_sum_set_prod$)N$)
(declare-fun snd$ (N_T_N_sum_set_prod$)T_N_sum_set$)
(declare-fun pair$ (N$ T_N_sum_set$ )N_T_N_sum_set_prod$)
(declare-fun projl$ (T_N_sum$)T$)
(declare-fun inl$ (T$ )T_N_sum$)
(declare-fun projr$ (T_N_sum$)N$)
(declare-fun inr$ (N$ )T_N_sum$)
(declare-fun projl$a (T_dtree_sum$)T$)
(declare-fun inl$a (T$ )T_dtree_sum$)
(declare-fun projr$a (T_dtree_sum$)Dtree$)
(declare-fun inr$a (Dtree$ )T_dtree_sum$)
(declare-fun p$ ()N_T_N_sum_set_prod_set$ )
(declare-fun id$ ()T_T_fun$ )
(declare-fun ns$ ()N_set$ )
(declare-fun tr$ ()Dtree$ )
(declare-fun uu$ (T_set$ )T_bool_fun$ )
(declare-fun wf$ (Dtree$ )Bool )
(declare-fun id$a ()N_set_N_set_fun$ )
(declare-fun id$b ()N_set_set_N_set_set_fun$ )
(declare-fun id$c ()T_set_set_T_set_set_fun$ )
(declare-fun id$d ()T_set_set_set_T_set_set_set_fun$ )
(declare-fun id$e ()T_N_sum_T_N_sum_fun$ )
(declare-fun id$f ()T_N_sum_set_T_N_sum_set_fun$ )
(declare-fun id$g ()T_set_T_set_fun$ )
(declare-fun id$h ()N_N_fun$ )
(declare-fun nsa$ ()N_set$ )
(declare-fun tr1$ ()Dtree$ )
(declare-fun tr2$ ()Dtree$ )
(declare-fun tr3$ ()Dtree$ )
(declare-fun uua$ (T_N_sum_set$ )T_N_sum_bool_fun$ )
(declare-fun uub$ (N_T_N_sum_set_prod_set$ )N_T_N_sum_set_prod_bool_fun$ )
(declare-fun uuc$ (N_set$ )N_bool_fun$ )
(declare-fun uud$ (T_dtree_sum_set$ )T_dtree_sum_bool_fun$ )
(declare-fun cont$ (Dtree$ )T_dtree_sum_set$ )
(declare-fun root$ ()Dtree_N_fun$ )
(declare-fun tr1a$ ()Dtree$ )
(declare-fun image$ (T_dtree_sum_T_N_sum_fun$ T_dtree_sum_set$ )T_N_sum_set$ )
(declare-fun subtr$ (N_set$ Dtree$ Dtree$ )Bool )
(declare-fun image$a (T_N_sum_T_dtree_sum_fun$ T_N_sum_set$ )T_dtree_sum_set$ )
(declare-fun image$b (T_N_sum_T_N_sum_fun$ )T_N_sum_set_T_N_sum_set_fun$ )
(declare-fun image$c (T_dtree_sum_T_dtree_sum_fun$ T_dtree_sum_set$ )T_dtree_sum_set$ )
(declare-fun image$d (N_set_N_set_fun$ )N_set_set_N_set_set_fun$ )
(declare-fun image$e (T_set_set_T_set_set_fun$ )T_set_set_set_T_set_set_set_fun$ )
(declare-fun image$f (T_set_T_set_fun$ )T_set_set_T_set_set_fun$ )
(declare-fun image$g (N_N_fun$ )N_set_N_set_fun$ )
(declare-fun image$h (T_T_fun$ )T_set_T_set_fun$ )
(declare-fun image$i (N_T_dtree_sum_fun$ N_set$ )T_dtree_sum_set$ )
(declare-fun image$j (T_dtree_sum_N_fun$ T_dtree_sum_set$ )N_set$ )
(declare-fun image$k (N_T_N_sum_set_prod_N_fun$ N_T_N_sum_set_prod_set$ )N_set$ )
(declare-fun image$l (N_N_T_N_sum_set_prod_fun$ N_set$ )N_T_N_sum_set_prod_set$ )
(declare-fun image$m (N_T_N_sum_set_prod_T_dtree_sum_fun$ N_T_N_sum_set_prod_set$ )T_dtree_sum_set$ )
(declare-fun image$n (T_dtree_sum_N_T_N_sum_set_prod_fun$ T_dtree_sum_set$ )N_T_N_sum_set_prod_set$ )
(declare-fun image$o (N_T_N_sum_set_prod_N_T_N_sum_set_prod_fun$ N_T_N_sum_set_prod_set$ )N_T_N_sum_set_prod_set$ )
(declare-fun image$p (N_T_N_sum_fun$ N_set$ )T_N_sum_set$ )
(declare-fun image$q (T_N_sum_N_fun$ T_N_sum_set$ )N_set$ )
(declare-fun member$ (N_T_N_sum_set_prod$ N_T_N_sum_set_prod_set$ )Bool )
(declare-fun collect$ (T_N_sum_bool_fun$ )T_N_sum_set$ )
(declare-fun fun_app$ (N_T_N_sum_set_prod_bool_fun$ N_T_N_sum_set_prod$ )Bool )
(declare-fun map_sum$ (T_T_fun$ )Dtree_N_fun_T_dtree_sum_T_N_sum_fun_fun$ )
(declare-fun member$a (T_dtree_sum$ T_dtree_sum_set$ )Bool )
(declare-fun member$b (T_N_sum$ T_N_sum_set$ )Bool )
(declare-fun member$c (T$ T_set$ )Bool )
(declare-fun member$d (N$ N_set$ )Bool )
(declare-fun member$e (T_set$ T_set_set$ )Bool )
(declare-fun collect$a (T_dtree_sum_bool_fun$ )T_dtree_sum_set$ )
(declare-fun collect$b (N_bool_fun$ )N_set$ )
(declare-fun collect$c (N_T_N_sum_set_prod_bool_fun$ )N_T_N_sum_set_prod_set$ )
(declare-fun collect$d (T_bool_fun$ )T_set$ )
(declare-fun fun_app$a (T_dtree_sum_bool_fun$ T_dtree_sum$ )Bool )
(declare-fun fun_app$b (T_N_sum_bool_fun$ T_N_sum$ )Bool )
(declare-fun fun_app$c (T_bool_fun$ T$ )Bool )
(declare-fun fun_app$d (N_bool_fun$ N$ )Bool )
(declare-fun fun_app$e (Dtree_N_fun$ Dtree$ )N$ )
(declare-fun fun_app$f (Dtree_N_fun_T_dtree_sum_T_N_sum_fun_fun$ Dtree_N_fun$ )T_dtree_sum_T_N_sum_fun$ )
(declare-fun fun_app$g (Dtree_bool_fun$ Dtree$ )Bool )
(declare-fun fun_app$h (Dtree_dtree_bool_fun_fun$ Dtree$ )Dtree_bool_fun$ )
(declare-fun fun_app$i (N_set_dtree_dtree_bool_fun_fun_fun$ N_set$ )Dtree_dtree_bool_fun_fun$ )
(declare-fun fun_app$j (N_dtree_fun_T_N_sum_T_dtree_sum_fun_fun$ N_dtree_fun$ )T_N_sum_T_dtree_sum_fun$ )
(declare-fun fun_app$k (N_dtree_fun$ N$ )Dtree$ )
(declare-fun fun_app$l (T_N_sum_set_T_N_sum_set_fun$ T_N_sum_set$ )T_N_sum_set$ )
(declare-fun fun_app$m (N_N_fun$ N$ )N$ )
(declare-fun fun_app$n (Dtree_dtree_fun_T_dtree_sum_T_dtree_sum_fun_fun$ Dtree_dtree_fun$ )T_dtree_sum_T_dtree_sum_fun$ )
(declare-fun fun_app$o (Dtree_dtree_fun$ Dtree$ )Dtree$ )
(declare-fun fun_app$p (N_set_N_set_fun$ N_set$ )N_set$ )
(declare-fun fun_app$q (T_set_set_T_set_set_fun$ T_set_set$ )T_set_set$ )
(declare-fun fun_app$r (T_set_T_set_fun$ T_set$ )T_set$ )
(declare-fun fun_app$s (T_T_fun$ T$ )T$ )
(declare-fun fun_app$t (N_T_dtree_sum_fun$ N$ )T_dtree_sum$ )
(declare-fun fun_app$u (T_dtree_sum_N_fun$ T_dtree_sum$ )N$ )
(declare-fun fun_app$v (T_dtree_sum_T_N_sum_fun$ T_dtree_sum$ )T_N_sum$ )
(declare-fun fun_app$w (T_dtree_sum_T_dtree_sum_fun$ T_dtree_sum$ )T_dtree_sum$ )
(declare-fun fun_app$x (N_T_N_sum_set_prod_N_fun$ N_T_N_sum_set_prod$ )N$ )
(declare-fun fun_app$y (N_N_T_N_sum_set_prod_fun$ N$ )N_T_N_sum_set_prod$ )
(declare-fun fun_app$z (N_T_N_sum_set_prod_T_dtree_sum_fun$ N_T_N_sum_set_prod$ )T_dtree_sum$ )
(declare-fun map_sum$a (T_T_fun$ )N_dtree_fun_T_N_sum_T_dtree_sum_fun_fun$ )
(declare-fun map_sum$b (T_T_fun$ N_N_fun$ )T_N_sum_T_N_sum_fun$ )
(declare-fun map_sum$c (T_T_fun$ )Dtree_dtree_fun_T_dtree_sum_T_dtree_sum_fun_fun$ )
(declare-fun fun_app$aa (T_dtree_sum_N_T_N_sum_set_prod_fun$ T_dtree_sum$ )N_T_N_sum_set_prod$ )
(declare-fun fun_app$ab (N_T_N_sum_set_prod_N_T_N_sum_set_prod_fun$ N_T_N_sum_set_prod$ )N_T_N_sum_set_prod$ )
(declare-fun fun_app$ac (T_N_sum_T_dtree_sum_fun$ T_N_sum$ )T_dtree_sum$ )
(declare-fun fun_app$ad (T_N_sum_T_N_sum_fun$ T_N_sum$ )T_N_sum$ )
(declare-fun fun_app$ae (N_T_N_sum_fun$ N$ )T_N_sum$ )
(declare-fun fun_app$af (T_N_sum_N_fun$ T_N_sum$ )N$ )
(assert (! (forall ((?v0 N_T_N_sum_set_prod_set$ )(?v1 N_T_N_sum_set_prod$ ))(! (= (fun_app$ (uub$ ?v0 )?v1 )(member$ ?v1 ?v0 )):pattern ((fun_app$ (uub$ ?v0 )?v1 )))):named a0 ))
(assert (! (forall ((?v0 T_dtree_sum_set$ )(?v1 T_dtree_sum$ ))(! (= (fun_app$a (uud$ ?v0 )?v1 )(member$a ?v1 ?v0 )):pattern ((fun_app$a (uud$ ?v0 )?v1 )))):named a1 ))
(assert (! (forall ((?v0 T_N_sum_set$ )(?v1 T_N_sum$ ))(! (= (fun_app$b (uua$ ?v0 )?v1 )(member$b ?v1 ?v0 )):pattern ((fun_app$b (uua$ ?v0 )?v1 )))):named a2 ))
(assert (! (forall ((?v0 T_set$ )(?v1 T$ ))(! (= (fun_app$c (uu$ ?v0 )?v1 )(member$c ?v1 ?v0 )):pattern ((fun_app$c (uu$ ?v0 )?v1 )))):named a3 ))
(assert (! (forall ((?v0 N_set$ )(?v1 N$ ))(! (= (fun_app$d (uuc$ ?v0 )?v1 )(member$d ?v1 ?v0 )):pattern ((fun_app$d (uuc$ ?v0 )?v1 )))):named a4 ))
(assert (! (not (member$ (pair$ (fun_app$e root$ tr1a$ )(image$ (fun_app$f (map_sum$ id$ )root$ )(cont$ tr1a$ )))p$ )):named a5 ))
(assert (! (member$d (fun_app$e root$ tr3$ )nsa$ ):named a6 ))
(assert (! (subtr$ nsa$ tr1a$ tr2$ ):named a7 ))
(assert (! (=> (wf$ tr2$ )(member$ (pair$ (fun_app$e root$ tr1a$ )(image$ (fun_app$f (map_sum$ id$ )root$ )(cont$ tr1a$ )))p$ )):named a8 ))
(assert (! (member$a (inr$a tr2$ )(cont$ tr3$ )):named a9 ))
(assert (! (wf$ tr3$ ):named a10 ))
(assert (! (wf$ tr1$ ):named a11 ))
(assert (! (subtr$ ns$ tr$ tr1$ ):named a12 ))
(assert (! (forall ((?v0 Dtree$ )(?v1 Dtree$ )(?v2 Dtree$ ))(=> (and (wf$ ?v0 )(and (member$a (inr$a ?v1 )(cont$ ?v0 ))(member$a (inr$a ?v2 )(cont$ ?v0 ))))(= (= (fun_app$e root$ ?v1 )(fun_app$e root$ ?v2 ))(= ?v1 ?v2 )))):named a13 ))
(assert (! (forall ((?v0 N_set$ )(?v1 Dtree$ )(?v2 Dtree$ ))(= (subtr$ ?v0 ?v1 ?v2 )(or (exists ((?v3 Dtree$ )(?v4 N_set$ ))(and (= ?v0 ?v4 )(and (= ?v1 ?v3 )(and (= ?v2 ?v3 )(member$d (fun_app$e root$ ?v3 )?v4 )))))(exists ((?v3 Dtree$ )(?v4 N_set$ )(?v5 Dtree$ )(?v6 Dtree$ ))(and (= ?v0 ?v4 )(and (= ?v1 ?v5 )(and (= ?v2 ?v3 )(and (member$d (fun_app$e root$ ?v3 )?v4 )(and (subtr$ ?v4 ?v5 ?v6 )(member$a (inr$a ?v6 )(cont$ ?v3 ))))))))))):named a14 ))
(assert (! (forall ((?v0 N_set$ )(?v1 Dtree$ )(?v2 Dtree$ )(?v3 N_set_dtree_dtree_bool_fun_fun_fun$ ))(=> (and (subtr$ ?v0 ?v1 ?v2 )(and (forall ((?v4 N_set$ )(?v5 Dtree$ ))(fun_app$g (fun_app$h (fun_app$i ?v3 ?v4 )?v5 )?v5 ))(forall ((?v4 N_set$ )(?v5 Dtree$ )(?v6 Dtree$ )(?v7 Dtree$ ))(=> (and (member$d (fun_app$e root$ ?v5 )?v4 )(and (member$a (inr$a ?v5 )(cont$ ?v6 ))(and (subtr$ ?v4 ?v6 ?v7 )(fun_app$g (fun_app$h (fun_app$i ?v3 ?v4 )?v6 )?v7 ))))(fun_app$g (fun_app$h (fun_app$i ?v3 ?v4 )?v5 )?v7 )))))(fun_app$g (fun_app$h (fun_app$i ?v3 ?v0 )?v1 )?v2 ))):named a15 ))
(assert (! (forall ((?v0 N_set$ )(?v1 Dtree$ )(?v2 Dtree$ ))(=> (and (subtr$ ?v0 ?v1 ?v2 )(and (forall ((?v3 Dtree$ )(?v4 N_set$ ))(=> (and (= ?v0 ?v4 )(and (= ?v1 ?v3 )(and (= ?v2 ?v3 )(member$d (fun_app$e root$ ?v3 )?v4 ))))false ))(forall ((?v3 Dtree$ )(?v4 N_set$ )(?v5 Dtree$ )(?v6 Dtree$ ))(=> (and (= ?v0 ?v4 )(and (= ?v1 ?v5 )(and (= ?v2 ?v3 )(and (member$d (fun_app$e root$ ?v3 )?v4 )(and (subtr$ ?v4 ?v5 ?v6 )(member$a (inr$a ?v6 )(cont$ ?v3 )))))))false ))))false )):named a16 ))
(assert (! (forall ((?v0 N_set$ )(?v1 Dtree$ )(?v2 Dtree$ )(?v3 Dtree$ ))(=> (and (subtr$ ?v0 ?v1 ?v2 )(subtr$ ?v0 ?v2 ?v3 ))(subtr$ ?v0 ?v1 ?v3 ))):named a17 ))
(assert (! (forall ((?v0 N_set$ )(?v1 Dtree$ )(?v2 Dtree$ ))(=> (subtr$ ?v0 ?v1 ?v2 )(member$d (fun_app$e root$ ?v2 )?v0 ))):named a18 ))
(assert (! (forall ((?v0 N_set$ )(?v1 Dtree$ )(?v2 Dtree$ ))(=> (subtr$ ?v0 ?v1 ?v2 )(member$d (fun_app$e root$ ?v1 )?v0 ))):named a19 ))
(assert (! (forall ((?v0 Dtree$ )(?v1 N_set$ )(?v2 Dtree$ )(?v3 Dtree$ ))(=> (and (member$d (fun_app$e root$ ?v0 )?v1 )(and (subtr$ ?v1 ?v2 ?v3 )(member$a (inr$a ?v3 )(cont$ ?v0 ))))(subtr$ ?v1 ?v2 ?v0 ))):named a20 ))
(assert (! (forall ((?v0 Dtree$ )(?v1 N_set$ )(?v2 Dtree$ )(?v3 Dtree$ ))(=> (and (member$d (fun_app$e root$ ?v0 )?v1 )(and (member$a (inr$a ?v0 )(cont$ ?v2 ))(subtr$ ?v1 ?v2 ?v3 )))(subtr$ ?v1 ?v0 ?v3 ))):named a21 ))
(assert (! (forall ((?v0 Dtree$ )(?v1 N_set$ ))(=> (member$d (fun_app$e root$ ?v0 )?v1 )(subtr$ ?v1 ?v0 ?v0 ))):named a22 ))
(assert (! (forall ((?v0 Dtree$ )(?v1 Dtree$ ))(=> (and (wf$ ?v0 )(member$a (inr$a ?v1 )(cont$ ?v0 )))(wf$ ?v1 ))):named a23 ))
(assert (! (forall ((?v0 Dtree$ ))(=> (wf$ ?v0 )(member$ (pair$ (fun_app$e root$ ?v0 )(image$ (fun_app$f (map_sum$ id$ )root$ )(cont$ ?v0 )))p$ ))):named a24 ))
(assert (! (forall ((?v0 N$ ))(exists ((?v1 T_N_sum_set$ ))(member$ (pair$ ?v0 ?v1 )p$ ))):named a25 ))
(assert (! (forall ((?v0 Dtree$ )(?v1 N_dtree_fun$ )(?v2 T_N_sum_set$ ))(= (member$a (inr$a ?v0 )(image$a (fun_app$j (map_sum$a id$ )?v1 )?v2 ))(exists ((?v3 N$ ))(and (member$b (inr$ ?v3 )?v2 )(= (fun_app$k ?v1 ?v3 )?v0 ))))):named a26 ))
(assert (! (forall ((?v0 N$ )(?v1 N_N_fun$ )(?v2 T_N_sum_set$ ))(= (member$b (inr$ ?v0 )(fun_app$l (image$b (map_sum$b id$ ?v1 ))?v2 ))(exists ((?v3 N$ ))(and (member$b (inr$ ?v3 )?v2 )(= (fun_app$m ?v1 ?v3 )?v0 ))))):named a27 ))
(assert (! (forall ((?v0 Dtree$ )(?v1 Dtree_dtree_fun$ )(?v2 T_dtree_sum_set$ ))(= (member$a (inr$a ?v0 )(image$c (fun_app$n (map_sum$c id$ )?v1 )?v2 ))(exists ((?v3 Dtree$ ))(and (member$a (inr$a ?v3 )?v2 )(= (fun_app$o ?v1 ?v3 )?v0 ))))):named a28 ))
(assert (! (forall ((?v0 N$ )(?v1 Dtree_N_fun$ )(?v2 T_dtree_sum_set$ ))(= (member$b (inr$ ?v0 )(image$ (fun_app$f (map_sum$ id$ )?v1 )?v2 ))(exists ((?v3 Dtree$ ))(and (member$a (inr$a ?v3 )?v2 )(= (fun_app$e ?v1 ?v3 )?v0 ))))):named a29 ))
(assert (! (= (image$d id$a )id$b ):named a30 ))
(assert (! (= (image$e id$c )id$d ):named a31 ))
(assert (! (= (image$b id$e )id$f ):named a32 ))
(assert (! (= (image$f id$g )id$c ):named a33 ))
(assert (! (= (image$g id$h )id$a ):named a34 ))
(assert (! (= (image$h id$ )id$g ):named a35 ))
(assert (! (forall ((?v0 Dtree$ )(?v1 N_dtree_fun$ )(?v2 T_N_sum_set$ ))(=> (member$a (inr$a ?v0 )(image$a (fun_app$j (map_sum$a id$ )?v1 )?v2 ))(exists ((?v3 N$ ))(and (member$b (inr$ ?v3 )?v2 )(= (fun_app$k ?v1 ?v3 )?v0 ))))):named a36 ))
(assert (! (forall ((?v0 N$ )(?v1 N_N_fun$ )(?v2 T_N_sum_set$ ))(=> (member$b (inr$ ?v0 )(fun_app$l (image$b (map_sum$b id$ ?v1 ))?v2 ))(exists ((?v3 N$ ))(and (member$b (inr$ ?v3 )?v2 )(= (fun_app$m ?v1 ?v3 )?v0 ))))):named a37 ))
(assert (! (forall ((?v0 Dtree$ )(?v1 Dtree_dtree_fun$ )(?v2 T_dtree_sum_set$ ))(=> (member$a (inr$a ?v0 )(image$c (fun_app$n (map_sum$c id$ )?v1 )?v2 ))(exists ((?v3 Dtree$ ))(and (member$a (inr$a ?v3 )?v2 )(= (fun_app$o ?v1 ?v3 )?v0 ))))):named a38 ))
(assert (! (forall ((?v0 N$ )(?v1 Dtree_N_fun$ )(?v2 T_dtree_sum_set$ ))(=> (member$b (inr$ ?v0 )(image$ (fun_app$f (map_sum$ id$ )?v1 )?v2 ))(exists ((?v3 Dtree$ ))(and (member$a (inr$a ?v3 )?v2 )(= (fun_app$e ?v1 ?v3 )?v0 ))))):named a39 ))
(assert (! (forall ((?v0 N$ )(?v1 N$ ))(= (= (inr$ ?v0 )(inr$ ?v1 ))(= ?v0 ?v1 ))):named a40 ))
(assert (! (forall ((?v0 Dtree$ )(?v1 Dtree$ ))(= (= (inr$a ?v0 )(inr$a ?v1 ))(= ?v0 ?v1 ))):named a41 ))
(assert (! (forall ((?v0 N$ )(?v1 N$ ))(= (= (inr$ ?v0 )(inr$ ?v1 ))(= ?v0 ?v1 ))):named a42 ))
(assert (! (forall ((?v0 Dtree$ )(?v1 Dtree$ ))(= (= (inr$a ?v0 )(inr$a ?v1 ))(= ?v0 ?v1 ))):named a43 ))
(assert (! (forall ((?v0 N$ ))(! (= (fun_app$m id$h ?v0 )?v0 ):pattern ((fun_app$m id$h ?v0 )))):named a44 ))
(assert (! (forall ((?v0 N_set$ ))(! (= (fun_app$p id$a ?v0 )?v0 ):pattern ((fun_app$p id$a ?v0 )))):named a45 ))
(assert (! (forall ((?v0 T_set_set$ ))(! (= (fun_app$q id$c ?v0 )?v0 ):pattern ((fun_app$q id$c ?v0 )))):named a46 ))
(assert (! (forall ((?v0 T_set$ ))(! (= (fun_app$r id$g ?v0 )?v0 ):pattern ((fun_app$r id$g ?v0 )))):named a47 ))
(assert (! (forall ((?v0 T$ ))(! (= (fun_app$s id$ ?v0 )?v0 ):pattern ((fun_app$s id$ ?v0 )))):named a48 ))
(assert (! (forall ((?v0 N$ )(?v1 N_N_fun$ )(?v2 N$ )(?v3 N_set$ ))(=> (and (= ?v0 (fun_app$m ?v1 ?v2 ))(member$d ?v2 ?v3 ))(member$d ?v0 (fun_app$p (image$g ?v1 )?v3 )))):named a49 ))
(assert (! (forall ((?v0 T_dtree_sum$ )(?v1 N_T_dtree_sum_fun$ )(?v2 N$ )(?v3 N_set$ ))(=> (and (= ?v0 (fun_app$t ?v1 ?v2 ))(member$d ?v2 ?v3 ))(member$a ?v0 (image$i ?v1 ?v3 )))):named a50 ))
(assert (! (forall ((?v0 N$ )(?v1 T_dtree_sum_N_fun$ )(?v2 T_dtree_sum$ )(?v3 T_dtree_sum_set$ ))(=> (and (= ?v0 (fun_app$u ?v1 ?v2 ))(member$a ?v2 ?v3 ))(member$d ?v0 (image$j ?v1 ?v3 )))):named a51 ))
(assert (! (forall ((?v0 T_N_sum$ )(?v1 T_dtree_sum_T_N_sum_fun$ )(?v2 T_dtree_sum$ )(?v3 T_dtree_sum_set$ ))(=> (and (= ?v0 (fun_app$v ?v1 ?v2 ))(member$a ?v2 ?v3 ))(member$b ?v0 (image$ ?v1 ?v3 )))):named a52 ))
(assert (! (forall ((?v0 T_dtree_sum$ )(?v1 T_dtree_sum_T_dtree_sum_fun$ )(?v2 T_dtree_sum$ )(?v3 T_dtree_sum_set$ ))(=> (and (= ?v0 (fun_app$w ?v1 ?v2 ))(member$a ?v2 ?v3 ))(member$a ?v0 (image$c ?v1 ?v3 )))):named a53 ))
(assert (! (forall ((?v0 N$ )(?v1 N_T_N_sum_set_prod_N_fun$ )(?v2 N_T_N_sum_set_prod$ )(?v3 N_T_N_sum_set_prod_set$ ))(=> (and (= ?v0 (fun_app$x ?v1 ?v2 ))(member$ ?v2 ?v3 ))(member$d ?v0 (image$k ?v1 ?v3 )))):named a54 ))
(assert (! (forall ((?v0 N_T_N_sum_set_prod$ )(?v1 N_N_T_N_sum_set_prod_fun$ )(?v2 N$ )(?v3 N_set$ ))(=> (and (= ?v0 (fun_app$y ?v1 ?v2 ))(member$d ?v2 ?v3 ))(member$ ?v0 (image$l ?v1 ?v3 )))):named a55 ))
(assert (! (forall ((?v0 T_dtree_sum$ )(?v1 N_T_N_sum_set_prod_T_dtree_sum_fun$ )(?v2 N_T_N_sum_set_prod$ )(?v3 N_T_N_sum_set_prod_set$ ))(=> (and (= ?v0 (fun_app$z ?v1 ?v2 ))(member$ ?v2 ?v3 ))(member$a ?v0 (image$m ?v1 ?v3 )))):named a56 ))
(assert (! (forall ((?v0 N_T_N_sum_set_prod$ )(?v1 T_dtree_sum_N_T_N_sum_set_prod_fun$ )(?v2 T_dtree_sum$ )(?v3 T_dtree_sum_set$ ))(=> (and (= ?v0 (fun_app$aa ?v1 ?v2 ))(member$a ?v2 ?v3 ))(member$ ?v0 (image$n ?v1 ?v3 )))):named a57 ))
(assert (! (forall ((?v0 N_T_N_sum_set_prod$ )(?v1 N_T_N_sum_set_prod_N_T_N_sum_set_prod_fun$ )(?v2 N_T_N_sum_set_prod$ )(?v3 N_T_N_sum_set_prod_set$ ))(=> (and (= ?v0 (fun_app$ab ?v1 ?v2 ))(member$ ?v2 ?v3 ))(member$ ?v0 (image$o ?v1 ?v3 )))):named a58 ))
(assert (! (forall ((?v0 N$ )(?v1 T_N_sum_set$ )(?v2 N$ )(?v3 T_N_sum_set$ ))(= (= (pair$ ?v0 ?v1 )(pair$ ?v2 ?v3 ))(and (= ?v0 ?v2 )(= ?v1 ?v3 )))):named a59 ))
(assert (! (forall ((?v0 N$ )(?v1 T_N_sum_set$ )(?v2 N$ )(?v3 T_N_sum_set$ ))(= (= (pair$ ?v0 ?v1 )(pair$ ?v2 ?v3 ))(and (= ?v0 ?v2 )(= ?v1 ?v3 )))):named a60 ))
(assert (! (forall ((?v0 Dtree$ )(?v1 Dtree$ ))(=> (and (= (fun_app$e root$ ?v0 )(fun_app$e root$ ?v1 ))(= (cont$ ?v0 )(cont$ ?v1 )))(= ?v0 ?v1 ))):named a61 ))
(assert (! (forall ((?v0 T_T_fun$ )(?v1 N_dtree_fun$ )(?v2 Bool )(?v3 N$ )(?v4 T_N_sum$ ))(= (fun_app$ac (fun_app$j (map_sum$a ?v0 )?v1 )(ite ?v2 (inr$ ?v3 )?v4 ))(ite ?v2 (inr$a (fun_app$k ?v1 ?v3 ))(fun_app$ac (fun_app$j (map_sum$a ?v0 )?v1 )?v4 )))):named a62 ))
(assert (! (forall ((?v0 T_T_fun$ )(?v1 N_N_fun$ )(?v2 Bool )(?v3 N$ )(?v4 T_N_sum$ ))(= (fun_app$ad (map_sum$b ?v0 ?v1 )(ite ?v2 (inr$ ?v3 )?v4 ))(ite ?v2 (inr$ (fun_app$m ?v1 ?v3 ))(fun_app$ad (map_sum$b ?v0 ?v1 )?v4 )))):named a63 ))
(assert (! (forall ((?v0 T_T_fun$ )(?v1 Dtree_dtree_fun$ )(?v2 Bool )(?v3 Dtree$ )(?v4 T_dtree_sum$ ))(= (fun_app$w (fun_app$n (map_sum$c ?v0 )?v1 )(ite ?v2 (inr$a ?v3 )?v4 ))(ite ?v2 (inr$a (fun_app$o ?v1 ?v3 ))(fun_app$w (fun_app$n (map_sum$c ?v0 )?v1 )?v4 )))):named a64 ))
(assert (! (forall ((?v0 T_T_fun$ )(?v1 Dtree_N_fun$ )(?v2 Bool )(?v3 Dtree$ )(?v4 T_dtree_sum$ ))(= (fun_app$v (fun_app$f (map_sum$ ?v0 )?v1 )(ite ?v2 (inr$a ?v3 )?v4 ))(ite ?v2 (inr$ (fun_app$e ?v1 ?v3 ))(fun_app$v (fun_app$f (map_sum$ ?v0 )?v1 )?v4 )))):named a65 ))
(assert (! (forall ((?v0 T_T_fun$ )(?v1 N_dtree_fun$ )(?v2 Bool )(?v3 T_N_sum$ )(?v4 N$ ))(= (fun_app$ac (fun_app$j (map_sum$a ?v0 )?v1 )(ite ?v2 ?v3 (inr$ ?v4 )))(ite ?v2 (fun_app$ac (fun_app$j (map_sum$a ?v0 )?v1 )?v3 )(inr$a (fun_app$k ?v1 ?v4 ))))):named a66 ))
(assert (! (forall ((?v0 T_T_fun$ )(?v1 N_N_fun$ )(?v2 Bool )(?v3 T_N_sum$ )(?v4 N$ ))(= (fun_app$ad (map_sum$b ?v0 ?v1 )(ite ?v2 ?v3 (inr$ ?v4 )))(ite ?v2 (fun_app$ad (map_sum$b ?v0 ?v1 )?v3 )(inr$ (fun_app$m ?v1 ?v4 ))))):named a67 ))
(assert (! (forall ((?v0 T_T_fun$ )(?v1 Dtree_dtree_fun$ )(?v2 Bool )(?v3 T_dtree_sum$ )(?v4 Dtree$ ))(= (fun_app$w (fun_app$n (map_sum$c ?v0 )?v1 )(ite ?v2 ?v3 (inr$a ?v4 )))(ite ?v2 (fun_app$w (fun_app$n (map_sum$c ?v0 )?v1 )?v3 )(inr$a (fun_app$o ?v1 ?v4 ))))):named a68 ))
(assert (! (forall ((?v0 T_T_fun$ )(?v1 Dtree_N_fun$ )(?v2 Bool )(?v3 T_dtree_sum$ )(?v4 Dtree$ ))(= (fun_app$v (fun_app$f (map_sum$ ?v0 )?v1 )(ite ?v2 ?v3 (inr$a ?v4 )))(ite ?v2 (fun_app$v (fun_app$f (map_sum$ ?v0 )?v1 )?v3 )(inr$ (fun_app$e ?v1 ?v4 ))))):named a69 ))
(assert (! (forall ((?v0 N_T_N_sum_set_prod$ ))(exists ((?v1 N$ )(?v2 T_N_sum_set$ ))(= ?v0 (pair$ ?v1 ?v2 )))):named a70 ))
(assert (! (forall ((?v0 N$ )(?v1 T_N_sum_set$ )(?v2 N$ )(?v3 T_N_sum_set$ ))(=> (and (= (pair$ ?v0 ?v1 )(pair$ ?v2 ?v3 ))(=> (and (= ?v0 ?v2 )(= ?v1 ?v3 ))false ))false )):named a71 ))
(assert (! (forall ((?v0 N_T_N_sum_set_prod$ ))(=> (forall ((?v1 N$ )(?v2 T_N_sum_set$ ))(=> (= ?v0 (pair$ ?v1 ?v2 ))false ))false )):named a72 ))
(assert (! (forall ((?v0 N_T_N_sum_set_prod_bool_fun$ )(?v1 N_T_N_sum_set_prod$ ))(=> (forall ((?v2 N$ )(?v3 T_N_sum_set$ ))(fun_app$ ?v0 (pair$ ?v2 ?v3 )))(fun_app$ ?v0 ?v1 ))):named a73 ))
(assert (! (forall ((?v0 N_T_N_sum_set_prod$ ))(=> (forall ((?v1 N$ )(?v2 T_N_sum_set$ ))(=> (= ?v0 (pair$ ?v1 ?v2 ))false ))false )):named a74 ))
(assert (! (forall ((?v0 N$ )(?v1 N_set$ )(?v2 N_N_fun$ ))(=> (member$d ?v0 ?v1 )(member$d (fun_app$m ?v2 ?v0 )(fun_app$p (image$g ?v2 )?v1 )))):named a75 ))
(assert (! (forall ((?v0 N$ )(?v1 N_set$ )(?v2 N_T_dtree_sum_fun$ ))(=> (member$d ?v0 ?v1 )(member$a (fun_app$t ?v2 ?v0 )(image$i ?v2 ?v1 )))):named a76 ))
(assert (! (forall ((?v0 T_dtree_sum$ )(?v1 T_dtree_sum_set$ )(?v2 T_dtree_sum_N_fun$ ))(=> (member$a ?v0 ?v1 )(member$d (fun_app$u ?v2 ?v0 )(image$j ?v2 ?v1 )))):named a77 ))
(assert (! (forall ((?v0 T_dtree_sum$ )(?v1 T_dtree_sum_set$ )(?v2 T_dtree_sum_T_N_sum_fun$ ))(=> (member$a ?v0 ?v1 )(member$b (fun_app$v ?v2 ?v0 )(image$ ?v2 ?v1 )))):named a78 ))
(assert (! (forall ((?v0 T_dtree_sum$ )(?v1 T_dtree_sum_set$ )(?v2 T_dtree_sum_T_dtree_sum_fun$ ))(=> (member$a ?v0 ?v1 )(member$a (fun_app$w ?v2 ?v0 )(image$c ?v2 ?v1 )))):named a79 ))
(assert (! (forall ((?v0 N_T_N_sum_set_prod$ )(?v1 N_T_N_sum_set_prod_set$ )(?v2 N_T_N_sum_set_prod_N_fun$ ))(=> (member$ ?v0 ?v1 )(member$d (fun_app$x ?v2 ?v0 )(image$k ?v2 ?v1 )))):named a80 ))
(assert (! (forall ((?v0 N$ )(?v1 N_set$ )(?v2 N_N_T_N_sum_set_prod_fun$ ))(=> (member$d ?v0 ?v1 )(member$ (fun_app$y ?v2 ?v0 )(image$l ?v2 ?v1 )))):named a81 ))
(assert (! (forall ((?v0 N_T_N_sum_set_prod$ )(?v1 N_T_N_sum_set_prod_set$ )(?v2 N_T_N_sum_set_prod_T_dtree_sum_fun$ ))(=> (member$ ?v0 ?v1 )(member$a (fun_app$z ?v2 ?v0 )(image$m ?v2 ?v1 )))):named a82 ))
(assert (! (forall ((?v0 T_dtree_sum$ )(?v1 T_dtree_sum_set$ )(?v2 T_dtree_sum_N_T_N_sum_set_prod_fun$ ))(=> (member$a ?v0 ?v1 )(member$ (fun_app$aa ?v2 ?v0 )(image$n ?v2 ?v1 )))):named a83 ))
(assert (! (forall ((?v0 N_T_N_sum_set_prod$ )(?v1 N_T_N_sum_set_prod_set$ )(?v2 N_T_N_sum_set_prod_N_T_N_sum_set_prod_fun$ ))(=> (member$ ?v0 ?v1 )(member$ (fun_app$ab ?v2 ?v0 )(image$o ?v2 ?v1 )))):named a84 ))
(assert (! (forall ((?v0 N$ )(?v1 N_set$ )(?v2 N$ )(?v3 N_N_fun$ ))(=> (and (member$d ?v0 ?v1 )(= ?v2 (fun_app$m ?v3 ?v0 )))(member$d ?v2 (fun_app$p (image$g ?v3 )?v1 )))):named a85 ))
(assert (! (forall ((?v0 N$ )(?v1 N_set$ )(?v2 T_dtree_sum$ )(?v3 N_T_dtree_sum_fun$ ))(=> (and (member$d ?v0 ?v1 )(= ?v2 (fun_app$t ?v3 ?v0 )))(member$a ?v2 (image$i ?v3 ?v1 )))):named a86 ))
(assert (! (forall ((?v0 T_dtree_sum$ )(?v1 T_dtree_sum_set$ )(?v2 N$ )(?v3 T_dtree_sum_N_fun$ ))(=> (and (member$a ?v0 ?v1 )(= ?v2 (fun_app$u ?v3 ?v0 )))(member$d ?v2 (image$j ?v3 ?v1 )))):named a87 ))
(assert (! (forall ((?v0 T_dtree_sum$ )(?v1 T_dtree_sum_set$ )(?v2 T_N_sum$ )(?v3 T_dtree_sum_T_N_sum_fun$ ))(=> (and (member$a ?v0 ?v1 )(= ?v2 (fun_app$v ?v3 ?v0 )))(member$b ?v2 (image$ ?v3 ?v1 )))):named a88 ))
(assert (! (forall ((?v0 T_dtree_sum$ )(?v1 T_dtree_sum_set$ )(?v2 T_dtree_sum$ )(?v3 T_dtree_sum_T_dtree_sum_fun$ ))(=> (and (member$a ?v0 ?v1 )(= ?v2 (fun_app$w ?v3 ?v0 )))(member$a ?v2 (image$c ?v3 ?v1 )))):named a89 ))
(assert (! (forall ((?v0 N_T_N_sum_set_prod$ )(?v1 N_T_N_sum_set_prod_set$ )(?v2 N$ )(?v3 N_T_N_sum_set_prod_N_fun$ ))(=> (and (member$ ?v0 ?v1 )(= ?v2 (fun_app$x ?v3 ?v0 )))(member$d ?v2 (image$k ?v3 ?v1 )))):named a90 ))
(assert (! (forall ((?v0 N$ )(?v1 N_set$ )(?v2 N_T_N_sum_set_prod$ )(?v3 N_N_T_N_sum_set_prod_fun$ ))(=> (and (member$d ?v0 ?v1 )(= ?v2 (fun_app$y ?v3 ?v0 )))(member$ ?v2 (image$l ?v3 ?v1 )))):named a91 ))
(assert (! (forall ((?v0 N_T_N_sum_set_prod$ )(?v1 N_T_N_sum_set_prod_set$ )(?v2 T_dtree_sum$ )(?v3 N_T_N_sum_set_prod_T_dtree_sum_fun$ ))(=> (and (member$ ?v0 ?v1 )(= ?v2 (fun_app$z ?v3 ?v0 )))(member$a ?v2 (image$m ?v3 ?v1 )))):named a92 ))
(assert (! (forall ((?v0 T_dtree_sum$ )(?v1 T_dtree_sum_set$ )(?v2 N_T_N_sum_set_prod$ )(?v3 T_dtree_sum_N_T_N_sum_set_prod_fun$ ))(=> (and (member$a ?v0 ?v1 )(= ?v2 (fun_app$aa ?v3 ?v0 )))(member$ ?v2 (image$n ?v3 ?v1 )))):named a93 ))
(assert (! (forall ((?v0 N_T_N_sum_set_prod$ )(?v1 N_T_N_sum_set_prod_set$ )(?v2 N_T_N_sum_set_prod$ )(?v3 N_T_N_sum_set_prod_N_T_N_sum_set_prod_fun$ ))(=> (and (member$ ?v0 ?v1 )(= ?v2 (fun_app$ab ?v3 ?v0 )))(member$ ?v2 (image$o ?v3 ?v1 )))):named a94 ))
(assert (! (forall ((?v0 N_N_fun$ )(?v1 N_set$ )(?v2 N_bool_fun$ ))(=> (forall ((?v3 N$ ))(=> (member$d ?v3 (fun_app$p (image$g ?v0 )?v1 ))(fun_app$d ?v2 ?v3 )))(forall ((?v3 N$ ))(=> (member$d ?v3 ?v1 )(fun_app$d ?v2 (fun_app$m ?v0 ?v3 )))))):named a95 ))
(assert (! (forall ((?v0 T_dtree_sum_N_fun$ )(?v1 T_dtree_sum_set$ )(?v2 N_bool_fun$ ))(=> (forall ((?v3 N$ ))(=> (member$d ?v3 (image$j ?v0 ?v1 ))(fun_app$d ?v2 ?v3 )))(forall ((?v3 T_dtree_sum$ ))(=> (member$a ?v3 ?v1 )(fun_app$d ?v2 (fun_app$u ?v0 ?v3 )))))):named a96 ))
(assert (! (forall ((?v0 N_T_dtree_sum_fun$ )(?v1 N_set$ )(?v2 T_dtree_sum_bool_fun$ ))(=> (forall ((?v3 T_dtree_sum$ ))(=> (member$a ?v3 (image$i ?v0 ?v1 ))(fun_app$a ?v2 ?v3 )))(forall ((?v3 N$ ))(=> (member$d ?v3 ?v1 )(fun_app$a ?v2 (fun_app$t ?v0 ?v3 )))))):named a97 ))
(assert (! (forall ((?v0 T_dtree_sum_T_N_sum_fun$ )(?v1 T_dtree_sum_set$ )(?v2 T_N_sum_bool_fun$ ))(=> (forall ((?v3 T_N_sum$ ))(=> (member$b ?v3 (image$ ?v0 ?v1 ))(fun_app$b ?v2 ?v3 )))(forall ((?v3 T_dtree_sum$ ))(=> (member$a ?v3 ?v1 )(fun_app$b ?v2 (fun_app$v ?v0 ?v3 )))))):named a98 ))
(assert (! (forall ((?v0 T_dtree_sum_T_dtree_sum_fun$ )(?v1 T_dtree_sum_set$ )(?v2 T_dtree_sum_bool_fun$ ))(=> (forall ((?v3 T_dtree_sum$ ))(=> (member$a ?v3 (image$c ?v0 ?v1 ))(fun_app$a ?v2 ?v3 )))(forall ((?v3 T_dtree_sum$ ))(=> (member$a ?v3 ?v1 )(fun_app$a ?v2 (fun_app$w ?v0 ?v3 )))))):named a99 ))
(assert (! (forall ((?v0 N_N_T_N_sum_set_prod_fun$ )(?v1 N_set$ )(?v2 N_T_N_sum_set_prod_bool_fun$ ))(=> (forall ((?v3 N_T_N_sum_set_prod$ ))(=> (member$ ?v3 (image$l ?v0 ?v1 ))(fun_app$ ?v2 ?v3 )))(forall ((?v3 N$ ))(=> (member$d ?v3 ?v1 )(fun_app$ ?v2 (fun_app$y ?v0 ?v3 )))))):named a100 ))
(assert (! (forall ((?v0 N_T_N_sum_set_prod_N_fun$ )(?v1 N_T_N_sum_set_prod_set$ )(?v2 N_bool_fun$ ))(=> (forall ((?v3 N$ ))(=> (member$d ?v3 (image$k ?v0 ?v1 ))(fun_app$d ?v2 ?v3 )))(forall ((?v3 N_T_N_sum_set_prod$ ))(=> (member$ ?v3 ?v1 )(fun_app$d ?v2 (fun_app$x ?v0 ?v3 )))))):named a101 ))
(assert (! (forall ((?v0 T_dtree_sum_N_T_N_sum_set_prod_fun$ )(?v1 T_dtree_sum_set$ )(?v2 N_T_N_sum_set_prod_bool_fun$ ))(=> (forall ((?v3 N_T_N_sum_set_prod$ ))(=> (member$ ?v3 (image$n ?v0 ?v1 ))(fun_app$ ?v2 ?v3 )))(forall ((?v3 T_dtree_sum$ ))(=> (member$a ?v3 ?v1 )(fun_app$ ?v2 (fun_app$aa ?v0 ?v3 )))))):named a102 ))
(assert (! (forall ((?v0 N_T_N_sum_set_prod_T_dtree_sum_fun$ )(?v1 N_T_N_sum_set_prod_set$ )(?v2 T_dtree_sum_bool_fun$ ))(=> (forall ((?v3 T_dtree_sum$ ))(=> (member$a ?v3 (image$m ?v0 ?v1 ))(fun_app$a ?v2 ?v3 )))(forall ((?v3 N_T_N_sum_set_prod$ ))(=> (member$ ?v3 ?v1 )(fun_app$a ?v2 (fun_app$z ?v0 ?v3 )))))):named a103 ))
(assert (! (forall ((?v0 N_T_N_sum_set_prod_N_T_N_sum_set_prod_fun$ )(?v1 N_T_N_sum_set_prod_set$ )(?v2 N_T_N_sum_set_prod_bool_fun$ ))(=> (forall ((?v3 N_T_N_sum_set_prod$ ))(=> (member$ ?v3 (image$o ?v0 ?v1 ))(fun_app$ ?v2 ?v3 )))(forall ((?v3 N_T_N_sum_set_prod$ ))(=> (member$ ?v3 ?v1 )(fun_app$ ?v2 (fun_app$ab ?v0 ?v3 )))))):named a104 ))
(assert (! (forall ((?v0 T_N_sum_bool_fun$ )(?v1 T_N_sum_bool_fun$ ))(=> (forall ((?v2 T_N_sum$ ))(= (fun_app$b ?v0 ?v2 )(fun_app$b ?v1 ?v2 )))(= (collect$ ?v0 )(collect$ ?v1 )))):named a105 ))
(assert (! (forall ((?v0 T_dtree_sum_bool_fun$ )(?v1 T_dtree_sum_bool_fun$ ))(=> (forall ((?v2 T_dtree_sum$ ))(= (fun_app$a ?v0 ?v2 )(fun_app$a ?v1 ?v2 )))(= (collect$a ?v0 )(collect$a ?v1 )))):named a106 ))
(assert (! (forall ((?v0 N_bool_fun$ )(?v1 N_bool_fun$ ))(=> (forall ((?v2 N$ ))(= (fun_app$d ?v0 ?v2 )(fun_app$d ?v1 ?v2 )))(= (collect$b ?v0 )(collect$b ?v1 )))):named a107 ))
(assert (! (forall ((?v0 N_T_N_sum_set_prod_bool_fun$ )(?v1 N_T_N_sum_set_prod_bool_fun$ ))(=> (forall ((?v2 N_T_N_sum_set_prod$ ))(= (fun_app$ ?v0 ?v2 )(fun_app$ ?v1 ?v2 )))(= (collect$c ?v0 )(collect$c ?v1 )))):named a108 ))
(assert (! (forall ((?v0 T_set$ ))(= (collect$d (uu$ ?v0 ))?v0 )):named a109 ))
(assert (! (forall ((?v0 T_N_sum_set$ ))(= (collect$ (uua$ ?v0 ))?v0 )):named a110 ))
(assert (! (forall ((?v0 N_T_N_sum_set_prod_set$ ))(= (collect$c (uub$ ?v0 ))?v0 )):named a111 ))
(assert (! (forall ((?v0 N_set$ ))(= (collect$b (uuc$ ?v0 ))?v0 )):named a112 ))
(assert (! (forall ((?v0 T_dtree_sum_set$ ))(= (collect$a (uud$ ?v0 ))?v0 )):named a113 ))
(assert (! (forall ((?v0 T$ )(?v1 T_bool_fun$ ))(= (member$c ?v0 (collect$d ?v1 ))(fun_app$c ?v1 ?v0 ))):named a114 ))
(assert (! (forall ((?v0 T_N_sum$ )(?v1 T_N_sum_bool_fun$ ))(= (member$b ?v0 (collect$ ?v1 ))(fun_app$b ?v1 ?v0 ))):named a115 ))
(assert (! (forall ((?v0 N_T_N_sum_set_prod$ )(?v1 N_T_N_sum_set_prod_bool_fun$ ))(= (member$ ?v0 (collect$c ?v1 ))(fun_app$ ?v1 ?v0 ))):named a116 ))
(assert (! (forall ((?v0 N$ )(?v1 N_bool_fun$ ))(= (member$d ?v0 (collect$b ?v1 ))(fun_app$d ?v1 ?v0 ))):named a117 ))
(assert (! (forall ((?v0 T_dtree_sum$ )(?v1 T_dtree_sum_bool_fun$ ))(= (member$a ?v0 (collect$a ?v1 ))(fun_app$a ?v1 ?v0 ))):named a118 ))
(assert (! (forall ((?v0 N_N_fun$ )(?v1 N_set$ )(?v2 N_bool_fun$ ))(=> (exists ((?v3 N$ ))(and (member$d ?v3 (fun_app$p (image$g ?v0 )?v1 ))(fun_app$d ?v2 ?v3 )))(exists ((?v3 N$ ))(and (member$d ?v3 ?v1 )(fun_app$d ?v2 (fun_app$m ?v0 ?v3 )))))):named a119 ))
(assert (! (forall ((?v0 T_dtree_sum_N_fun$ )(?v1 T_dtree_sum_set$ )(?v2 N_bool_fun$ ))(=> (exists ((?v3 N$ ))(and (member$d ?v3 (image$j ?v0 ?v1 ))(fun_app$d ?v2 ?v3 )))(exists ((?v3 T_dtree_sum$ ))(and (member$a ?v3 ?v1 )(fun_app$d ?v2 (fun_app$u ?v0 ?v3 )))))):named a120 ))
(assert (! (forall ((?v0 N_T_dtree_sum_fun$ )(?v1 N_set$ )(?v2 T_dtree_sum_bool_fun$ ))(=> (exists ((?v3 T_dtree_sum$ ))(and (member$a ?v3 (image$i ?v0 ?v1 ))(fun_app$a ?v2 ?v3 )))(exists ((?v3 N$ ))(and (member$d ?v3 ?v1 )(fun_app$a ?v2 (fun_app$t ?v0 ?v3 )))))):named a121 ))
(assert (! (forall ((?v0 T_dtree_sum_T_N_sum_fun$ )(?v1 T_dtree_sum_set$ )(?v2 T_N_sum_bool_fun$ ))(=> (exists ((?v3 T_N_sum$ ))(and (member$b ?v3 (image$ ?v0 ?v1 ))(fun_app$b ?v2 ?v3 )))(exists ((?v3 T_dtree_sum$ ))(and (member$a ?v3 ?v1 )(fun_app$b ?v2 (fun_app$v ?v0 ?v3 )))))):named a122 ))
(assert (! (forall ((?v0 T_dtree_sum_T_dtree_sum_fun$ )(?v1 T_dtree_sum_set$ )(?v2 T_dtree_sum_bool_fun$ ))(=> (exists ((?v3 T_dtree_sum$ ))(and (member$a ?v3 (image$c ?v0 ?v1 ))(fun_app$a ?v2 ?v3 )))(exists ((?v3 T_dtree_sum$ ))(and (member$a ?v3 ?v1 )(fun_app$a ?v2 (fun_app$w ?v0 ?v3 )))))):named a123 ))
(assert (! (forall ((?v0 N_N_T_N_sum_set_prod_fun$ )(?v1 N_set$ )(?v2 N_T_N_sum_set_prod_bool_fun$ ))(=> (exists ((?v3 N_T_N_sum_set_prod$ ))(and (member$ ?v3 (image$l ?v0 ?v1 ))(fun_app$ ?v2 ?v3 )))(exists ((?v3 N$ ))(and (member$d ?v3 ?v1 )(fun_app$ ?v2 (fun_app$y ?v0 ?v3 )))))):named a124 ))
(assert (! (forall ((?v0 N_T_N_sum_set_prod_N_fun$ )(?v1 N_T_N_sum_set_prod_set$ )(?v2 N_bool_fun$ ))(=> (exists ((?v3 N$ ))(and (member$d ?v3 (image$k ?v0 ?v1 ))(fun_app$d ?v2 ?v3 )))(exists ((?v3 N_T_N_sum_set_prod$ ))(and (member$ ?v3 ?v1 )(fun_app$d ?v2 (fun_app$x ?v0 ?v3 )))))):named a125 ))
(assert (! (forall ((?v0 T_dtree_sum_N_T_N_sum_set_prod_fun$ )(?v1 T_dtree_sum_set$ )(?v2 N_T_N_sum_set_prod_bool_fun$ ))(=> (exists ((?v3 N_T_N_sum_set_prod$ ))(and (member$ ?v3 (image$n ?v0 ?v1 ))(fun_app$ ?v2 ?v3 )))(exists ((?v3 T_dtree_sum$ ))(and (member$a ?v3 ?v1 )(fun_app$ ?v2 (fun_app$aa ?v0 ?v3 )))))):named a126 ))
(assert (! (forall ((?v0 N_T_N_sum_set_prod_T_dtree_sum_fun$ )(?v1 N_T_N_sum_set_prod_set$ )(?v2 T_dtree_sum_bool_fun$ ))(=> (exists ((?v3 T_dtree_sum$ ))(and (member$a ?v3 (image$m ?v0 ?v1 ))(fun_app$a ?v2 ?v3 )))(exists ((?v3 N_T_N_sum_set_prod$ ))(and (member$ ?v3 ?v1 )(fun_app$a ?v2 (fun_app$z ?v0 ?v3 )))))):named a127 ))
(assert (! (forall ((?v0 N_T_N_sum_set_prod_N_T_N_sum_set_prod_fun$ )(?v1 N_T_N_sum_set_prod_set$ )(?v2 N_T_N_sum_set_prod_bool_fun$ ))(=> (exists ((?v3 N_T_N_sum_set_prod$ ))(and (member$ ?v3 (image$o ?v0 ?v1 ))(fun_app$ ?v2 ?v3 )))(exists ((?v3 N_T_N_sum_set_prod$ ))(and (member$ ?v3 ?v1 )(fun_app$ ?v2 (fun_app$ab ?v0 ?v3 )))))):named a128 ))
(assert (! (forall ((?v0 T_dtree_sum_set$ )(?v1 T_dtree_sum_set$ )(?v2 T_dtree_sum_T_N_sum_fun$ )(?v3 T_dtree_sum_T_N_sum_fun$ ))(=> (and (= ?v0 ?v1 )(forall ((?v4 T_dtree_sum$ ))(=> (member$a ?v4 ?v1 )(= (fun_app$v ?v2 ?v4 )(fun_app$v ?v3 ?v4 )))))(= (image$ ?v2 ?v0 )(image$ ?v3 ?v1 )))):named a129 ))
(assert (! (forall ((?v0 T_set$ )(?v1 T_set$ )(?v2 T_T_fun$ )(?v3 T_T_fun$ ))(=> (and (= ?v0 ?v1 )(forall ((?v4 T$ ))(=> (member$c ?v4 ?v1 )(= (fun_app$s ?v2 ?v4 )(fun_app$s ?v3 ?v4 )))))(= (fun_app$r (image$h ?v2 )?v0 )(fun_app$r (image$h ?v3 )?v1 )))):named a130 ))
(assert (! (forall ((?v0 N_set$ )(?v1 N_set$ )(?v2 N_N_fun$ )(?v3 N_N_fun$ ))(=> (and (= ?v0 ?v1 )(forall ((?v4 N$ ))(=> (member$d ?v4 ?v1 )(= (fun_app$m ?v2 ?v4 )(fun_app$m ?v3 ?v4 )))))(= (fun_app$p (image$g ?v2 )?v0 )(fun_app$p (image$g ?v3 )?v1 )))):named a131 ))
(assert (! (forall ((?v0 N_set$ )(?v1 N_set$ )(?v2 N_T_dtree_sum_fun$ )(?v3 N_T_dtree_sum_fun$ ))(=> (and (= ?v0 ?v1 )(forall ((?v4 N$ ))(=> (member$d ?v4 ?v1 )(= (fun_app$t ?v2 ?v4 )(fun_app$t ?v3 ?v4 )))))(= (image$i ?v2 ?v0 )(image$i ?v3 ?v1 )))):named a132 ))
(assert (! (forall ((?v0 T_dtree_sum_set$ )(?v1 T_dtree_sum_set$ )(?v2 T_dtree_sum_N_fun$ )(?v3 T_dtree_sum_N_fun$ ))(=> (and (= ?v0 ?v1 )(forall ((?v4 T_dtree_sum$ ))(=> (member$a ?v4 ?v1 )(= (fun_app$u ?v2 ?v4 )(fun_app$u ?v3 ?v4 )))))(= (image$j ?v2 ?v0 )(image$j ?v3 ?v1 )))):named a133 ))
(assert (! (forall ((?v0 N_set$ )(?v1 N_set$ )(?v2 N_N_T_N_sum_set_prod_fun$ )(?v3 N_N_T_N_sum_set_prod_fun$ ))(=> (and (= ?v0 ?v1 )(forall ((?v4 N$ ))(=> (member$d ?v4 ?v1 )(= (fun_app$y ?v2 ?v4 )(fun_app$y ?v3 ?v4 )))))(= (image$l ?v2 ?v0 )(image$l ?v3 ?v1 )))):named a134 ))
(assert (! (forall ((?v0 T_set_set$ )(?v1 T_set_set$ )(?v2 T_set_T_set_fun$ )(?v3 T_set_T_set_fun$ ))(=> (and (= ?v0 ?v1 )(forall ((?v4 T_set$ ))(=> (member$e ?v4 ?v1 )(= (fun_app$r ?v2 ?v4 )(fun_app$r ?v3 ?v4 )))))(= (fun_app$q (image$f ?v2 )?v0 )(fun_app$q (image$f ?v3 )?v1 )))):named a135 ))
(assert (! (forall ((?v0 N_set$ )(?v1 N_set$ )(?v2 N_T_N_sum_fun$ )(?v3 N_T_N_sum_fun$ ))(=> (and (= ?v0 ?v1 )(forall ((?v4 N$ ))(=> (member$d ?v4 ?v1 )(= (fun_app$ae ?v2 ?v4 )(fun_app$ae ?v3 ?v4 )))))(= (image$p ?v2 ?v0 )(image$p ?v3 ?v1 )))):named a136 ))
(assert (! (forall ((?v0 T_N_sum_set$ )(?v1 T_N_sum_set$ )(?v2 T_N_sum_N_fun$ )(?v3 T_N_sum_N_fun$ ))(=> (and (= ?v0 ?v1 )(forall ((?v4 T_N_sum$ ))(=> (member$b ?v4 ?v1 )(= (fun_app$af ?v2 ?v4 )(fun_app$af ?v3 ?v4 )))))(= (image$q ?v2 ?v0 )(image$q ?v3 ?v1 )))):named a137 ))
(assert (! (forall ((?v0 T_N_sum_set$ )(?v1 T_N_sum_set$ )(?v2 T_N_sum_T_dtree_sum_fun$ )(?v3 T_N_sum_T_dtree_sum_fun$ ))(=> (and (= ?v0 ?v1 )(forall ((?v4 T_N_sum$ ))(=> (member$b ?v4 ?v1 )(= (fun_app$ac ?v2 ?v4 )(fun_app$ac ?v3 ?v4 )))))(= (image$a ?v2 ?v0 )(image$a ?v3 ?v1 )))):named a138 ))
(assert (! (forall ((?v0 N$ )(?v1 N_N_fun$ )(?v2 N_set$ ))(= (member$d ?v0 (fun_app$p (image$g ?v1 )?v2 ))(exists ((?v3 N$ ))(and (member$d ?v3 ?v2 )(= ?v0 (fun_app$m ?v1 ?v3 )))))):named a139 ))
(assert (! (forall ((?v0 N$ )(?v1 T_dtree_sum_N_fun$ )(?v2 T_dtree_sum_set$ ))(= (member$d ?v0 (image$j ?v1 ?v2 ))(exists ((?v3 T_dtree_sum$ ))(and (member$a ?v3 ?v2 )(= ?v0 (fun_app$u ?v1 ?v3 )))))):named a140 ))
(assert (! (forall ((?v0 T_dtree_sum$ )(?v1 N_T_dtree_sum_fun$ )(?v2 N_set$ ))(= (member$a ?v0 (image$i ?v1 ?v2 ))(exists ((?v3 N$ ))(and (member$d ?v3 ?v2 )(= ?v0 (fun_app$t ?v1 ?v3 )))))):named a141 ))
(assert (! (forall ((?v0 T_N_sum$ )(?v1 T_dtree_sum_T_N_sum_fun$ )(?v2 T_dtree_sum_set$ ))(= (member$b ?v0 (image$ ?v1 ?v2 ))(exists ((?v3 T_dtree_sum$ ))(and (member$a ?v3 ?v2 )(= ?v0 (fun_app$v ?v1 ?v3 )))))):named a142 ))
(assert (! (forall ((?v0 T_dtree_sum$ )(?v1 T_dtree_sum_T_dtree_sum_fun$ )(?v2 T_dtree_sum_set$ ))(= (member$a ?v0 (image$c ?v1 ?v2 ))(exists ((?v3 T_dtree_sum$ ))(and (member$a ?v3 ?v2 )(= ?v0 (fun_app$w ?v1 ?v3 )))))):named a143 ))
(assert (! (forall ((?v0 N_T_N_sum_set_prod$ )(?v1 N_N_T_N_sum_set_prod_fun$ )(?v2 N_set$ ))(= (member$ ?v0 (image$l ?v1 ?v2 ))(exists ((?v3 N$ ))(and (member$d ?v3 ?v2 )(= ?v0 (fun_app$y ?v1 ?v3 )))))):named a144 ))
(assert (! (forall ((?v0 N$ )(?v1 N_T_N_sum_set_prod_N_fun$ )(?v2 N_T_N_sum_set_prod_set$ ))(= (member$d ?v0 (image$k ?v1 ?v2 ))(exists ((?v3 N_T_N_sum_set_prod$ ))(and (member$ ?v3 ?v2 )(= ?v0 (fun_app$x ?v1 ?v3 )))))):named a145 ))
(assert (! (forall ((?v0 N_T_N_sum_set_prod$ )(?v1 T_dtree_sum_N_T_N_sum_set_prod_fun$ )(?v2 T_dtree_sum_set$ ))(= (member$ ?v0 (image$n ?v1 ?v2 ))(exists ((?v3 T_dtree_sum$ ))(and (member$a ?v3 ?v2 )(= ?v0 (fun_app$aa ?v1 ?v3 )))))):named a146 ))
(assert (! (forall ((?v0 T_dtree_sum$ )(?v1 N_T_N_sum_set_prod_T_dtree_sum_fun$ )(?v2 N_T_N_sum_set_prod_set$ ))(= (member$a ?v0 (image$m ?v1 ?v2 ))(exists ((?v3 N_T_N_sum_set_prod$ ))(and (member$ ?v3 ?v2 )(= ?v0 (fun_app$z ?v1 ?v3 )))))):named a147 ))
(assert (! (forall ((?v0 N_T_N_sum_set_prod$ )(?v1 N_T_N_sum_set_prod_N_T_N_sum_set_prod_fun$ )(?v2 N_T_N_sum_set_prod_set$ ))(= (member$ ?v0 (image$o ?v1 ?v2 ))(exists ((?v3 N_T_N_sum_set_prod$ ))(and (member$ ?v3 ?v2 )(= ?v0 (fun_app$ab ?v1 ?v3 )))))):named a148 ))
(check-sat )
(get-unsat-core )
